V126 Mo2 O256
1.0
  14.1255560399999993    0.0008106000000000   -4.2532183600000000
  -2.2413168400000001   24.4129265199999992   -7.4408000800000007
  -0.0751662800000000    0.1865554200000000   12.5283986600000006
V Mo O
126 2 256
direct
   0.1741473200000000    0.0698101050000000    0.1965268050000000 V
   0.1741473200000000    0.0698101050000000    0.6965268050000000 V
   0.1741473200000000    0.3198101050000001    0.1965268050000000 V
   0.1741473200000000    0.3198101050000001    0.6965268050000000 V
   0.1741473200000000    0.5698101050000002    0.1965268050000001 V
   0.1741473200000000    0.5698101050000000    0.6965268050000001 V
   0.1741473200000000    0.8198101050000001    0.1965268050000001 V
   0.1741473200000000    0.8198101050000001    0.6965268050000001 V
   0.4241473200000000    0.0698101050000000    0.1965268050000001 V
   0.4241473199999999    0.0698101050000000    0.6965268050000001 V
   0.4241473200000000    0.3198101050000000    0.1965268050000001 V
   0.4241473200000000    0.3198101050000001    0.6965268050000001 V
   0.4241473199999999    0.5698101050000001    0.1965268050000000 V
   0.4241473200000000    0.5698101050000002    0.6965268050000001 V
   0.4241473199999999    0.8198101050000001    0.1965268050000000 V
   0.4241473199999999    0.8198101050000000    0.6965268050000000 V
   0.6741473200000000    0.0698101050000000    0.1965268050000001 V
   0.6741473200000001    0.0698101050000000    0.6965268050000001 V
   0.6741473200000001    0.3198101050000000    0.1965268050000000 V
   0.6741473200000000    0.3198101050000000    0.6965268050000000 V
   0.6741473200000000    0.5698101050000002    0.1965268050000001 V
   0.6741473199999999    0.5698101050000001    0.6965268050000000 V
   0.6741473200000001    0.8198101050000001    0.1965268050000001 V
   0.6741473200000000    0.8198101050000001    0.6965268050000001 V
   0.9241473200000001    0.0698101050000000    0.1965268050000001 V
   0.9241473200000000    0.0698101050000000    0.6965268050000000 V
   0.9241473200000000    0.3198101050000000    0.1965268050000001 V
   0.9241473199999999    0.3198101050000000    0.6965268050000000 V
   0.9241473200000000    0.5698101050000001    0.1965268050000001 V
   0.9241473200000000    0.5698101050000001    0.6965268050000002 V
   0.9241473200000000    0.8198101050000001    0.1965268050000001 V
   0.9241473200000000    0.8198101050000000    0.6965268050000000 V
   0.0758526800000000    0.1801898950000000    0.3034731950000000 V
   0.0758526800000000    0.1801898950000000    0.8034731950000000 V
   0.0758526800000000    0.4301898950000001    0.3034731950000000 V
   0.0758526800000000    0.4301898950000000    0.8034731949999999 V
   0.0758526800000000    0.6801898950000000    0.3034731950000000 V
   0.0758526800000000    0.6801898950000000    0.8034731950000000 V
   0.0758526800000000    0.9301898950000002    0.3034731950000001 V
   0.0758526800000000    0.9301898950000000    0.8034731950000000 V
   0.3258526800000001    0.1801898950000000    0.3034731950000000 V
   0.3258526800000000    0.1801898950000000    0.8034731950000000 V
   0.3258526800000001    0.4301898950000000    0.3034731950000000 V
   0.3258526800000000    0.4301898950000000    0.8034731950000000 V
   0.3258526800000000    0.6801898950000000    0.3034731950000000 V
   0.3258526800000000    0.6801898950000002    0.8034731950000001 V
   0.3258526800000000    0.9301898950000000    0.3034731950000000 V
   0.3258526800000000    0.9301898950000000    0.8034731950000000 V
   0.5758526799999999    0.1801898950000000    0.3034731950000000 V
   0.5758526800000001    0.1801898950000000    0.8034731950000000 V
   0.5758526800000000    0.4301898950000000    0.3034731950000000 V
   0.5758526800000000    0.4301898950000000    0.8034731950000000 V
   0.5758526800000001    0.6801898950000000    0.3034731950000001 V
   0.5758526800000001    0.6801898950000000    0.8034731950000000 V
   0.5758526800000000    0.9301898950000002    0.3034731950000001 V
   0.5758526800000000    0.9301898950000002    0.8034731950000001 V
   0.8258526800000001    0.1801898950000000    0.3034731950000000 V
   0.8258526800000000    0.1801898950000000    0.8034731950000000 V
   0.8258526800000001    0.4301898950000000    0.3034731950000001 V
   0.8258526800000000    0.4301898950000000    0.8034731950000000 V
   0.8258526800000001    0.6801898950000002    0.3034731950000001 V
   0.8258526800000000    0.6801898950000000    0.8034731950000000 V
   0.8258526800000001    0.9301898950000000    0.3034731950000000 V
   0.8258526800000000    0.9301898950000000    0.8034731949999999 V
   0.1501547775000000    0.1746235375000000    0.1002203550000000 V
   0.1501547775000000    0.1746235375000000    0.6002203550000000 V
   0.1501547775000000    0.4246235375000000    0.1002203550000000 V
   0.1501547775000000    0.4246235375000001    0.6002203549999999 V
   0.1501547775000000    0.6746235375000000    0.1002203550000000 V
   0.1501547775000000    0.6746235375000001    0.6002203550000000 V
   0.1501547775000000    0.9246235375000000    0.1002203550000000 V
   0.1501547775000000    0.9246235374999999    0.6002203550000000 V
   0.4001547775000000    0.1746235375000000    0.1002203550000000 V
   0.4001547775000001    0.1746235375000000    0.6002203550000000 V
   0.4001547775000001    0.4246235375000001    0.1002203550000000 V
   0.4001547775000001    0.4246235375000000    0.6002203550000000 V
   0.4001547775000000    0.6746235375000003    0.1002203550000000 V
   0.4001547775000000    0.6746235375000000    0.6002203550000000 V
   0.4001547775000000    0.9246235375000000    0.1002203550000000 V
   0.4001547775000000    0.9246235375000000    0.6002203550000000 V
   0.6501547775000001    0.1746235375000000    0.1002203550000000 V
   0.6501547775000001    0.1746235375000000    0.6002203550000000 V
   0.6501547775000001    0.4246235375000000    0.1002203550000000 V
   0.6501547774999999    0.4246235375000000    0.6002203550000000 V
   0.6501547775000001    0.6746235375000000    0.1002203550000000 V
   0.6501547775000001    0.6746235375000003    0.6002203550000000 V
   0.6501547775000001    0.9246235375000000    0.1002203550000000 V
   0.6501547774999999    0.9246235375000000    0.6002203549999999 V
   0.9001547775000001    0.1746235375000000    0.1002203550000000 V
   0.9001547774999999    0.1746235375000000    0.6002203550000000 V
   0.9001547775000001    0.4246235375000000    0.1002203550000000 V
   0.9001547774999999    0.4246235375000001    0.6002203550000000 V
   0.9001547775000001    0.6746235375000000    0.1002203550000000 V
   0.9001547774999999    0.6746235375000000    0.6002203550000000 V
   0.9001547774999999    0.9246235375000000    0.1002203550000000 V
   0.9001547774999999    0.9246235374999999    0.6002203549999999 V
   0.0998452225000000    0.0753764625000000    0.3997796450000000 V
   0.0998452225000000    0.0753764625000000    0.8997796450000002 V
   0.0998452225000000    0.3253764625000000    0.3997796450000001 V
   0.0998452225000000    0.3253764625000000    0.8997796450000001 V
   0.0998452225000000    0.5753764625000001    0.3997796450000001 V
   0.0998452225000000    0.5753764625000002    0.8997796450000002 V
   0.0998452225000000    0.8253764625000001    0.3997796450000002 V
   0.0998452225000000    0.8253764625000001    0.8997796450000002 V
   0.3498452225000000    0.0753764625000000    0.3997796450000001 V
   0.3498452224999999    0.0753764625000000    0.8997796450000000 V
   0.3498452225000000    0.3253764625000001    0.3997796450000001 V
   0.3498452224999999    0.3253764625000000    0.8997796450000000 V
   0.3498452225000000    0.5753764625000000    0.3997796450000001 V
   0.3498452225000000    0.5753764625000001    0.8997796450000001 V
   0.3498452224999999    0.8253764625000001    0.3997796450000002 V
   0.3498452225000000    0.8253764625000001    0.8997796450000002 V
   0.5998452224999999    0.0753764625000000    0.3997796450000001 Mo
   0.5998452224999999    0.0753764625000000    0.8997796450000001 V
   0.5998452225000001    0.3253764625000001    0.3997796450000001 V
   0.5998452225000001    0.3253764625000000    0.8997796450000000 V
   0.5998452225000001    0.5753764625000001    0.3997796450000001 V
   0.5998452224999999    0.5753764625000001    0.8997796450000002 V
   0.5998452225000002    0.8253764625000001    0.3997796450000001 V
   0.5998452225000001    0.8253764625000001    0.8997796450000001 V
   0.8498452225000001    0.0753764625000000    0.3997796450000001 V
   0.8498452224999999    0.0753764625000000    0.8997796450000000 V
   0.8498452224999999    0.3253764625000001    0.3997796450000001 V
   0.8498452224999998    0.3253764625000000    0.8997796450000001 V
   0.8498452225000001    0.5753764625000000    0.3997796450000001 V
   0.8498452224999999    0.5753764625000001    0.8997796450000002 V
   0.8498452224999999    0.8253764625000002    0.3997796450000001 V
   0.8498452224999998    0.8253764625000001    0.8997796450000000 Mo
   0.1594563950000000    0.0019319400000000    0.1376960100000000 O
   0.1594563950000000    0.0019319400000000    0.6376960100000001 O
   0.1594563950000000    0.2519319400000000    0.1376960100000000 O
   0.1594563950000000    0.2519319400000000    0.6376960100000000 O
   0.1594563950000000    0.5019319400000001    0.1376960100000001 O
   0.1594563950000000    0.5019319400000000    0.6376960100000001 O
   0.1594563950000000    0.7519319400000001    0.1376960100000001 O
   0.1594563950000000    0.7519319400000002    0.6376960100000000 O
   0.4094563950000000    0.0019319400000000    0.1376960100000000 O
   0.4094563950000000    0.0019319400000000    0.6376960100000001 O
   0.4094563950000000    0.2519319400000000    0.1376960100000000 O
   0.4094563950000001    0.2519319400000000    0.6376960100000001 O
   0.4094563950000000    0.5019319400000001    0.1376960100000000 O
   0.4094563950000000    0.5019319400000002    0.6376960100000001 O
   0.4094563949999999    0.7519319400000001    0.1376960100000000 O
   0.4094563950000000    0.7519319400000000    0.6376960100000000 O
   0.6594563950000000    0.0019319400000000    0.1376960100000000 O
   0.6594563950000001    0.0019319400000000    0.6376960100000000 O
   0.6594563950000002    0.2519319400000000    0.1376960100000001 O
   0.6594563950000001    0.2519319400000000    0.6376960100000001 O
   0.6594563950000000    0.5019319400000002    0.1376960100000001 O
   0.6594563949999999    0.5019319400000001    0.6376960100000001 O
   0.6594563950000001    0.7519319400000002    0.1376960100000002 O
   0.6594563950000001    0.7519319400000001    0.6376960100000001 O
   0.9094563950000001    0.0019319400000000    0.1376960100000000 O
   0.9094563950000000    0.0019319400000000    0.6376960100000000 O
   0.9094563950000000    0.2519319400000000    0.1376960100000000 O
   0.9094563949999999    0.2519319400000000    0.6376960100000000 O
   0.9094563950000001    0.5019319400000001    0.1376960100000001 O
   0.9094563950000000    0.5019319400000000    0.6376960100000000 O
   0.9094563950000000    0.7519319400000000    0.1376960100000001 O
   0.9094563950000000    0.7519319400000001    0.6376960100000001 O
   0.0905436050000000    0.2480680600000001    0.3623034900000001 O
   0.0905436050000000    0.2480680600000000    0.8623034900000000 O
   0.0905436050000000    0.4980680600000001    0.3623034900000001 O
   0.0905436050000000    0.4980680600000001    0.8623034900000000 O
   0.0905436050000000    0.7480680600000001    0.3623034900000001 O
   0.0905436050000000    0.7480680600000000    0.8623034900000001 O
   0.0905436050000000    0.9980680600000001    0.3623034900000001 O
   0.0905436050000000    0.9980680600000001    0.8623034900000002 O
   0.3405436050000000    0.2480680600000001    0.3623034900000001 O
   0.3405436050000000    0.2480680600000001    0.8623034900000001 O
   0.3405436050000000    0.4980680600000001    0.3623034900000001 O
   0.3405436050000000    0.4980680600000000    0.8623034900000002 O
   0.3405436050000001    0.7480680600000003    0.3623034900000001 O
   0.3405436050000000    0.7480680600000003    0.8623034900000001 O
   0.3405436050000000    0.9980680600000000    0.3623034900000001 O
   0.3405436050000000    0.9980680600000000    0.8623034900000000 O
   0.5905436050000000    0.2480680600000001    0.3623034900000001 O
   0.5905436050000000    0.2480680600000001    0.8623034900000001 O
   0.5905436049999999    0.4980680600000001    0.3623034900000002 O
   0.5905436050000001    0.4980680600000001    0.8623034900000000 O
   0.5905436050000000    0.7480680600000001    0.3623034900000001 O
   0.5905436050000000    0.7480680600000003    0.8623034900000002 O
   0.5905436050000000    0.9980680600000001    0.3623034900000002 O
   0.5905436050000001    0.9980680600000001    0.8623034900000002 O
   0.8405436050000000    0.2480680600000001    0.3623034900000001 O
   0.8405436050000000    0.2480680600000000    0.8623034900000001 O
   0.8405436049999999    0.4980680600000001    0.3623034900000000 O
   0.8405436050000000    0.4980680600000000    0.8623034900000001 O
   0.8405436049999999    0.7480680600000001    0.3623034900000001 O
   0.8405436050000001    0.7480680600000001    0.8623034900000002 O
   0.8405436050000000    0.9980680600000001    0.3623034900000001 O
   0.8405436049999998    0.9980680600000000    0.8623034900000000 O
   0.1918979775000000    0.1635513775000000    0.2676200000000001 O
   0.1918979775000000    0.1635513775000000    0.7676200000000000 O
   0.1918979775000000    0.4135513775000000    0.2676200000000000 O
   0.1918979775000000    0.4135513775000000    0.7676200000000001 O
   0.1918979775000000    0.6635513775000002    0.2676200000000001 O
   0.1918979775000000    0.6635513775000000    0.7676200000000001 O
   0.1918979775000000    0.9135513775000000    0.2676200000000001 O
   0.1918979775000000    0.9135513775000002    0.7676200000000002 O
   0.4418979775000000    0.1635513775000000    0.2676200000000000 O
   0.4418979775000000    0.1635513775000000    0.7676200000000001 O
   0.4418979775000001    0.4135513775000000    0.2676200000000001 O
   0.4418979775000000    0.4135513775000000    0.7676200000000000 O
   0.4418979775000000    0.6635513775000000    0.2676200000000001 O
   0.4418979775000000    0.6635513775000003    0.7676200000000001 O
   0.4418979775000000    0.9135513774999999    0.2676200000000000 O
   0.4418979775000000    0.9135513775000000    0.7676200000000001 O
   0.6918979775000000    0.1635513775000000    0.2676200000000001 O
   0.6918979775000000    0.1635513775000000    0.7676200000000001 O
   0.6918979775000000    0.4135513775000000    0.2676200000000000 O
   0.6918979775000000    0.4135513775000000    0.7676200000000000 O
   0.6918979775000000    0.6635513775000000    0.2676200000000000 O
   0.6918979775000000    0.6635513775000000    0.7676200000000002 O
   0.6918979775000000    0.9135513775000003    0.2676200000000001 O
   0.6918979775000000    0.9135513774999999    0.7676200000000000 O
   0.9418979775000000    0.1635513775000000    0.2676200000000001 O
   0.9418979775000000    0.1635513775000000    0.7676200000000001 O
   0.9418979775000000    0.4135513775000001    0.2676200000000001 O
   0.9418979774999999    0.4135513775000000    0.7676200000000001 O
   0.9418979775000001    0.6635513775000000    0.2676200000000000 O
   0.9418979775000000    0.6635513775000000    0.7676200000000001 O
   0.9418979775000000    0.9135513775000002    0.2676200000000002 O
   0.9418979774999999    0.9135513774999999    0.7676200000000001 O
   0.0581020225000000    0.0864486225000000    0.2323800000000000 O
   0.0581020225000000    0.0864486225000000    0.7323800000000000 O
   0.0581020225000000    0.3364486225000001    0.2323800000000001 O
   0.0581020225000000    0.3364486225000000    0.7323800000000000 O
   0.0581020225000000    0.5864486225000001    0.2323800000000001 O
   0.0581020225000000    0.5864486225000001    0.7323800000000000 O
   0.0581020225000000    0.8364486225000001    0.2323800000000000 O
   0.0581020225000000    0.8364486225000001    0.7323800000000000 O
   0.3081020225000000    0.0864486225000000    0.2323800000000000 O
   0.3081020225000000    0.0864486225000000    0.7323800000000000 O
   0.3081020225000000    0.3364486225000001    0.2323800000000001 O
   0.3081020225000000    0.3364486225000000    0.7323800000000000 O
   0.3081020225000001    0.5864486225000001    0.2323800000000000 O
   0.3081020225000000    0.5864486225000002    0.7323800000000000 O
   0.3081020225000001    0.8364486224999998    0.2323800000000000 O
   0.3081020225000000    0.8364486225000000    0.7323800000000000 O
   0.5581020225000001    0.0864486225000000    0.2323800000000000 O
   0.5581020225000000    0.0864486225000000    0.7323800000000000 O
   0.5581020225000000    0.3364486225000000    0.2323800000000001 O
   0.5581020225000001    0.3364486225000000    0.7323800000000000 O
   0.5581020225000001    0.5864486225000001    0.2323800000000001 O
   0.5581020225000001    0.5864486225000001    0.7323800000000000 O
   0.5581020225000000    0.8364486225000001    0.2323800000000000 O
   0.5581020225000001    0.8364486225000000    0.7323800000000000 O
   0.8081020225000001    0.0864486225000000    0.2323800000000000 O
   0.8081020225000001    0.0864486225000000    0.7323800000000000 O
   0.8081020225000001    0.3364486225000001    0.2323800000000001 O
   0.8081020225000000    0.3364486225000000    0.7323800000000000 O
   0.8081020225000001    0.5864486225000001    0.2323800000000001 O
   0.8081020225000001    0.5864486225000001    0.7323800000000001 O
   0.8081020225000001    0.8364486225000000    0.2323800000000001 O
   0.8081020225000000    0.8364486225000000    0.7323799999999999 O
   0.1398425499999998    0.0923282575000000    0.0593700400000000 O
   0.1398425499999998    0.0923282575000000    0.5593700400000000 O
   0.1398425499999998    0.3423282575000000    0.0593700400000000 O
   0.1398425499999998    0.3423282575000000    0.5593700399999999 O
   0.1398425499999998    0.5923282575000001    0.0593700400000000 O
   0.1398425499999998    0.5923282575000002    0.5593700400000000 O
   0.1398425499999998    0.8423282575000000    0.0593700400000001 O
   0.1398425499999997    0.8423282575000000    0.5593700400000001 O
   0.3898425499999998    0.0923282575000000    0.0593700400000000 O
   0.3898425499999998    0.0923282575000000    0.5593700400000001 O
   0.3898425499999997    0.3423282575000000    0.0593700400000000 O
   0.3898425499999998    0.3423282575000001    0.5593700400000000 O
   0.3898425499999998    0.5923282575000001    0.0593700400000001 O
   0.3898425499999998    0.5923282575000001    0.5593700400000000 O
   0.3898425499999998    0.8423282575000000    0.0593700399999999 O
   0.3898425499999998    0.8423282575000000    0.5593700399999999 O
   0.6398425499999999    0.0923282575000000    0.0593700400000000 O
   0.6398425499999998    0.0923282575000000    0.5593700400000000 O
   0.6398425499999997    0.3423282575000000    0.0593700400000001 O
   0.6398425499999999    0.3423282575000000    0.5593700400000000 O
   0.6398425499999999    0.5923282575000000    0.0593700400000000 O
   0.6398425499999999    0.5923282575000001    0.5593700400000001 O
   0.6398425499999997    0.8423282575000001    0.0593700400000000 O
   0.6398425500000000    0.8423282575000001    0.5593700400000000 O
   0.8898425499999998    0.0923282575000000    0.0593700400000000 O
   0.8898425499999998    0.0923282575000000    0.5593700400000000 O
   0.8898425499999998    0.3423282575000000    0.0593700400000000 O
   0.8898425499999997    0.3423282575000000    0.5593700400000001 O
   0.8898425499999998    0.5923282575000000    0.0593700400000000 O
   0.8898425499999998    0.5923282575000001    0.5593700400000001 O
   0.8898425499999998    0.8423282575000000    0.0593700400000001 O
   0.8898425499999997    0.8423282575000000    0.5593700400000000 O
   0.1101574499999997    0.1576717425000000    0.4406299600000000 O
   0.1101574499999997    0.1576717425000000    0.9406299599999999 O
   0.1101574499999997    0.4076717425000000    0.4406299600000000 O
   0.1101574499999997    0.4076717425000000    0.9406299599999999 O
   0.1101574499999997    0.6576717424999999    0.4406299600000000 O
   0.1101574499999998    0.6576717425000000    0.9406299600000001 O
   0.1101574499999997    0.9076717425000000    0.4406299600000000 O
   0.1101574499999997    0.9076717424999999    0.9406299600000000 O
   0.3601574499999998    0.1576717425000000    0.4406299600000000 O
   0.3601574499999997    0.1576717425000000    0.9406299600000000 O
   0.3601574499999998    0.4076717425000000    0.4406299600000000 O
   0.3601574499999997    0.4076717425000000    0.9406299600000000 O
   0.3601574499999998    0.6576717425000002    0.4406299600000000 O
   0.3601574499999997    0.6576717425000000    0.9406299599999999 O
   0.3601574499999998    0.9076717424999999    0.4406299600000000 O
   0.3601574499999997    0.9076717424999999    0.9406299599999999 O
   0.6101574499999998    0.1576717425000000    0.4406299600000000 O
   0.6101574499999998    0.1576717425000000    0.9406299600000000 O
   0.6101574499999998    0.4076717425000000    0.4406299599999999 O
   0.6101574499999998    0.4076717425000000    0.9406299600000000 O
   0.6101574499999998    0.6576717424999999    0.4406299599999999 O
   0.6101574499999998    0.6576717425000002    0.9406299600000001 O
   0.6101574499999999    0.9076717425000002    0.4406299600000000 O
   0.6101574499999999    0.9076717425000000    0.9406299599999999 O
   0.8601574499999998    0.1576717425000000    0.4406299600000000 O
   0.8601574499999998    0.1576717425000000    0.9406299599999999 O
   0.8601574499999997    0.4076717425000000    0.4406299600000000 O
   0.8601574499999997    0.4076717425000000    0.9406299600000001 O
   0.8601574499999998    0.6576717425000000    0.4406299600000001 O
   0.8601574499999998    0.6576717424999999    0.9406299600000001 O
   0.8601574499999998    0.9076717424999999    0.4406299599999999 O
   0.8601574499999997    0.9076717424999999    0.9406299600000000 O
   0.2163259175000000    0.0738088725000000    0.3655279150000000 O
   0.2163259175000000    0.0738088725000000    0.8655279149999999 O
   0.2163259175000000    0.3238088725000001    0.3655279150000000 O
   0.2163259175000000    0.3238088725000000    0.8655279149999999 O
   0.2163259175000000    0.5738088725000000    0.3655279150000000 O
   0.2163259175000000    0.5738088725000000    0.8655279150000000 O
   0.2163259175000000    0.8238088725000000    0.3655279150000001 O
   0.2163259175000000    0.8238088725000000    0.8655279150000001 O
   0.4663259175000000    0.0738088725000000    0.3655279150000000 O
   0.4663259175000000    0.0738088725000000    0.8655279149999999 O
   0.4663259175000000    0.3238088725000001    0.3655279150000000 O
   0.4663259175000000    0.3238088725000001    0.8655279149999999 O
   0.4663259175000000    0.5738088725000000    0.3655279150000000 O
   0.4663259175000000    0.5738088725000001    0.8655279149999999 O
   0.4663259175000000    0.8238088725000000    0.3655279150000000 O
   0.4663259175000000    0.8238088724999999    0.8655279149999999 O
   0.7163259175000000    0.0738088725000000    0.3655279150000000 O
   0.7163259175000000    0.0738088725000000    0.8655279150000000 O
   0.7163259175000000    0.3238088725000000    0.3655279150000000 O
   0.7163259175000001    0.3238088725000000    0.8655279150000000 O
   0.7163259175000000    0.5738088725000000    0.3655279150000000 O
   0.7163259175000001    0.5738088725000000    0.8655279150000000 O
   0.7163259175000001    0.8238088725000001    0.3655279150000000 O
   0.7163259175000001    0.8238088725000001    0.8655279150000001 O
   0.9663259175000001    0.0738088725000000    0.3655279150000000 O
   0.9663259175000001    0.0738088725000000    0.8655279149999999 O
   0.9663259175000000    0.3238088725000000    0.3655279150000000 O
   0.9663259175000000    0.3238088725000000    0.8655279149999999 O
   0.9663259175000001    0.5738088725000000    0.3655279150000000 O
   0.9663259175000001    0.5738088725000001    0.8655279149999999 O
   0.9663259175000000    0.8238088724999999    0.3655279150000000 O
   0.9663259174999999    0.8238088724999999    0.8655279149999999 O
   0.0336740825000000    0.1761911275000000    0.1344720850000000 O
   0.0336740825000000    0.1761911275000000    0.6344720850000000 O
   0.0336740825000000    0.4261911275000001    0.1344720850000001 O
   0.0336740825000000    0.4261911275000000    0.6344720850000000 O
   0.0336740825000000    0.6761911275000001    0.1344720850000001 O
   0.0336740825000000    0.6761911275000000    0.6344720850000001 O
   0.0336740825000000    0.9261911275000002    0.1344720850000001 O
   0.0336740825000000    0.9261911275000001    0.6344720850000001 O
   0.2836740825000000    0.1761911275000001    0.1344720850000000 O
   0.2836740825000000    0.1761911275000000    0.6344720850000001 O
   0.2836740825000000    0.4261911275000000    0.1344720850000000 O
   0.2836740825000000    0.4261911275000001    0.6344720850000001 O
   0.2836740825000000    0.6761911275000001    0.1344720850000000 O
   0.2836740825000000    0.6761911275000001    0.6344720850000001 O
   0.2836740825000000    0.9261911275000001    0.1344720850000001 O
   0.2836740825000000    0.9261911275000001    0.6344720850000001 O
   0.5336740825000000    0.1761911275000000    0.1344720850000000 O
   0.5336740825000000    0.1761911275000000    0.6344720850000001 O
   0.5336740824999999    0.4261911275000000    0.1344720850000000 O
   0.5336740824999999    0.4261911275000001    0.6344720850000001 O
   0.5336740825000000    0.6761911275000002    0.1344720850000001 O
   0.5336740825000000    0.6761911275000001    0.6344720850000000 O
   0.5336740825000000    0.9261911275000002    0.1344720850000001 O
   0.5336740825000000    0.9261911275000001    0.6344720850000001 O
   0.7836740825000000    0.1761911275000000    0.1344720850000001 O
   0.7836740825000000    0.1761911275000000    0.6344720850000001 O
   0.7836740825000000    0.4261911275000000    0.1344720850000000 O
   0.7836740825000000    0.4261911275000000    0.6344720850000001 O
   0.7836740825000000    0.6761911275000001    0.1344720850000002 O
   0.7836740825000001    0.6761911275000000    0.6344720850000001 O
   0.7836740825000000    0.9261911275000002    0.1344720850000001 O
   0.7836740825000000    0.9261911275000001    0.6344720850000000 O
